
Gurobi 9.5.0 (linux64) logging started Sat Nov  4 11:37:39 2023

Set parameter LogFile to value "/lustre1/scratch/348/vsc34888/JointResearch/05.Models/06.Benchmarking/E.Representative_days_based_on_Line_Benefits_OptModel/RTS24_ByStages_nc10/openStarNet_RTS24_ByStages_nc10.log"
Set parameter Method to value 2
Set parameter MIPFocus to value 1
Set parameter Presolve to value 2
Set parameter RINS to value 100
Set parameter MIPGap to value 0.01
Set parameter Threads to value 36
Set parameter TimeLimit to value 604800
Set parameter IterationLimit to value 760000000
Gurobi Optimizer version 9.5.0 build v9.5.0rc5 (linux64)
Thread count: 36 physical cores, 36 logical processors, using up to 36 threads
Optimize a model with 4453 rows, 2591 columns and 12234 nonzeros
Model fingerprint: 0x99f65208
Variable types: 2552 continuous, 39 integer (39 binary)
Coefficient statistics:
  Matrix range     [3e-02, 3e+03]
  Objective range  [1e+00, 1e+00]
  Bounds range     [4e-04, 3e+00]
  RHS range        [4e-04, 3e+00]
Presolve removed 2173 rows and 1093 columns
Presolve time: 0.01s
Presolved: 2280 rows, 1498 columns, 7929 nonzeros
Variable types: 1459 continuous, 39 integer (39 binary)
Found heuristic solution: objective 138.4243848
Root relaxation presolved: 2280 rows, 1498 columns, 7929 nonzeros

Root barrier log...

Ordering time: 0.03s

Barrier statistics:
 AA' NZ     : 4.339e+04
 Factor NZ  : 3.361e+05 (roughly 4 MB of memory)
 Factor Ops : 7.237e+07 (less than 1 second per iteration)
 Threads    : 36

                  Objective                Residual
Iter       Primal          Dual         Primal    Dual     Compl     Time
   0   6.02007886e+05 -2.96149406e+07  4.50e+00 6.81e+02  1.84e+04     0s
   1   5.86430619e+04 -8.03258297e+06  4.29e-01 5.03e-11  2.38e+03     0s
   2   7.41869167e+03 -7.55956763e+05  4.41e-03 3.36e-11  1.64e+02     0s
   3   3.98153721e+03 -5.01712106e+04  5.31e-13 7.22e-12  1.15e+01     0s
   4   5.99532037e+02 -4.42104896e+03  3.26e-13 5.46e-12  1.07e+00     0s
   5   3.40046173e+02 -1.62974860e+03  3.44e-13 3.64e-12  4.19e-01     0s
   6   1.96581096e+02 -4.21548476e+02  2.98e-13 3.64e-12  1.32e-01     0s
   7   1.37766663e+02 -1.19206919e+02  3.06e-13 3.64e-12  5.47e-02     0s
   8   9.45387846e+01  3.47896253e+01  5.99e-13 3.64e-12  1.27e-02     0s
   9   8.15571674e+01  6.04839717e+01  2.55e-13 3.64e-12  4.49e-03     0s
  10   7.77418012e+01  7.22617472e+01  7.25e-13 1.82e-12  1.17e-03     0s
  11   7.55096344e+01  7.39659687e+01  4.57e-13 3.64e-12  3.29e-04     0s
  12   7.50215550e+01  7.41348843e+01  5.42e-11 3.64e-12  1.89e-04     0s
  13   7.47335231e+01  7.42769283e+01  1.69e-10 3.64e-12  9.72e-05     0s
  14   7.43136466e+01  7.42993375e+01  1.96e-10 3.64e-12  3.05e-06     0s
  15   7.43040047e+01  7.43036696e+01  2.46e-09 3.64e-12  7.14e-08     0s
  16   7.43037144e+01  7.43037132e+01  1.76e-11 3.64e-12  2.61e-10     0s
  17   7.43037141e+01  7.43037141e+01  5.35e-10 1.82e-12  2.61e-13     0s

Barrier solved model in 17 iterations and 0.32 seconds (0.08 work units)
Optimal objective 7.43037141e+01


Root relaxation: objective 7.430371e+01, 172 iterations, 0.29 seconds (0.05 work units)

    Nodes    |    Current Node    |     Objective Bounds      |     Work
 Expl Unexpl |  Obj  Depth IntInf | Incumbent    BestBd   Gap | It/Node Time

     0     0   74.30371    0   11  138.42438   74.30371  46.3%     -    0s
H    0     0                      89.4607677   74.30371  16.9%     -    0s
     0     0   79.76026    0    9   89.46077   79.76026  10.8%     -    0s
H    0     0                      89.3069037   80.33452  10.0%     -    0s
     0     0   80.33452    0    8   89.30690   80.33452  10.0%     -    0s
     0     0   81.03386    0   10   89.30690   81.03386  9.26%     -    0s
     0     0   81.08233    0   12   89.30690   81.08233  9.21%     -    0s
     0     0   81.10333    0   12   89.30690   81.10333  9.19%     -    0s
     0     0   81.10333    0   12   89.30690   81.10333  9.19%     -    0s
     0     0   81.23924    0   11   89.30690   81.23924  9.03%     -    0s
     0     0   81.33138    0   10   89.30690   81.33138  8.93%     -    0s
     0     0   81.67606    0   10   89.30690   81.67606  8.54%     -    0s
H    0     0                      87.1714107   81.67606  6.30%     -    0s
     0     2   81.67606    0   10   87.17141   81.67606  6.30%     -    0s

Cutting planes:
  Gomory: 9
  MIR: 62

Explored 190 nodes (3823 simplex iterations) in 1.25 seconds (0.87 work units)
Thread count was 36 (of 36 available processors)

Solution count 4: 87.1714 89.3069 89.4608 138.424 

Optimal solution found (tolerance 1.00e-02)
Best objective 8.717141065537e+01, best bound 8.717141065537e+01, gap 0.0000%

Gurobi 9.5.0 (linux64) logging started Sat Nov  4 11:37:40 2023

Set parameter LogFile to value "/lustre1/scratch/348/vsc34888/JointResearch/05.Models/06.Benchmarking/E.Representative_days_based_on_Line_Benefits_OptModel/RTS24_ByStages_nc10/openStarNet_RTS24_ByStages_nc10.log"
Set parameter Method to value 2
Set parameter MIPFocus to value 1
Set parameter Presolve to value 2
Set parameter RINS to value 100
Set parameter MIPGap to value 0.01
Set parameter Threads to value 36
Set parameter TimeLimit to value 604800
Set parameter IterationLimit to value 760000000
No parameters matching 'relax_integrality' found
Gurobi Optimizer version 9.5.0 build v9.5.0rc5 (linux64)
Thread count: 36 physical cores, 36 logical processors, using up to 36 threads
Optimize a model with 4453 rows, 2552 columns and 10635 nonzeros
Model fingerprint: 0xd052106b
Coefficient statistics:
  Matrix range     [3e-02, 3e+03]
  Objective range  [1e+00, 1e+00]
  Bounds range     [4e-04, 3e+00]
  RHS range        [4e-04, 3e+01]
Presolve removed 3513 rows and 1183 columns
Presolve time: 0.00s
Presolved: 940 rows, 1389 columns, 3469 nonzeros

Ordering time: 0.00s

Barrier statistics:
 AA' NZ     : 2.430e+03
 Factor NZ  : 1.022e+04 (roughly 1 MB of memory)
 Factor Ops : 1.546e+05 (less than 1 second per iteration)
 Threads    : 1

                  Objective                Residual
Iter       Primal          Dual         Primal    Dual     Compl     Time
   0   1.29899831e+06 -1.85890207e+08  4.85e+00 1.43e+03  1.62e+05     0s
   1   1.40852904e+05 -2.86777121e+07  5.01e-01 1.23e-10  1.72e+04     0s
   2   4.84783402e+04 -2.76557485e+06  1.22e-01 1.09e-10  1.54e+03     0s
   3   2.16810917e+04 -3.67046009e+05  1.89e-03 8.73e-11  1.65e+02     0s
   4   9.21522837e+03 -3.31529195e+04  1.68e-12 2.33e-11  1.78e+01     0s
   5   1.12737397e+03 -4.64829634e+03  4.99e-13 1.46e-11  2.43e+00     0s
   6   2.87970537e+02 -5.51173487e+02  2.39e-13 1.46e-11  3.53e-01     0s
   7   1.99897218e+02 -7.66288398e+01  3.56e-13 1.46e-11  1.16e-01     0s
   8   1.18589023e+02  2.01544971e+01  1.96e-13 1.46e-11  4.14e-02     0s
   9   9.34462141e+01  7.69993386e+01  3.49e-12 1.46e-11  6.92e-03     0s
  10   8.74307926e+01  8.45989443e+01  8.98e-13 2.91e-11  1.19e-03     0s
  11   8.71998248e+01  8.70754601e+01  1.44e-12 1.46e-11  5.23e-05     0s
  12   8.71714138e+01  8.71714082e+01  1.46e-12 2.91e-11  2.37e-09     0s
  13   8.71714107e+01  8.71714107e+01  6.86e-12 2.91e-11  2.37e-12     0s

Barrier solved model in 13 iterations and 0.02 seconds (0.01 work units)
Optimal objective 8.71714107e+01

Crossover log...

     119 DPushes remaining with DInf 0.0000000e+00                 0s
       0 DPushes remaining with DInf 0.0000000e+00                 0s

      47 PPushes remaining with PInf 0.0000000e+00                 0s
       0 PPushes remaining with PInf 0.0000000e+00                 0s

  Push phase complete: Pinf 0.0000000e+00, Dinf 1.6936491e-12      0s

Iteration    Objective       Primal Inf.    Dual Inf.      Time
      53    8.7171411e+01   0.000000e+00   0.000000e+00      0s

Use crossover to convert LP symmetric solution to basic solution...
Crossover log...

       0 DPushes remaining with DInf 0.0000000e+00                 0s

      24 PPushes remaining with PInf 0.0000000e+00                 0s
       0 PPushes remaining with PInf 0.0000000e+00                 0s

  Push phase complete: Pinf 0.0000000e+00, Dinf 2.1076078e-12      0s

Iteration    Objective       Primal Inf.    Dual Inf.      Time
      81    8.7171411e+01   0.000000e+00   0.000000e+00      0s

Solved in 81 iterations and 0.02 seconds (0.02 work units)
Optimal objective  8.717141066e+01

Gurobi 9.5.0 (linux64) logging started Sat Nov  4 12:06:39 2023

Set parameter LogFile to value "/lustre1/scratch/348/vsc34888/JointResearch/05.Models/06.Benchmarking/E.Representative_days_based_on_Line_Benefits_OptModel/RTS24_ByStages_nc10/openStarNet_RTS24_ByStages_nc10.log"
Set parameter Method to value 2
Set parameter MIPFocus to value 1
Set parameter Presolve to value 2
Set parameter RINS to value 100
Set parameter MIPGap to value 0.01
Set parameter Threads to value 36
Set parameter TimeLimit to value 604800
Set parameter IterationLimit to value 760000000
Gurobi Optimizer version 9.5.0 build v9.5.0rc5 (linux64)
Thread count: 36 physical cores, 36 logical processors, using up to 36 threads
Optimize a model with 4453 rows, 2591 columns and 12234 nonzeros
Model fingerprint: 0x0b911e32
Variable types: 2552 continuous, 39 integer (39 binary)
Coefficient statistics:
  Matrix range     [3e-02, 3e+03]
  Objective range  [1e+00, 1e+00]
  Bounds range     [4e-04, 3e+00]
  RHS range        [4e-04, 3e+00]
Presolve removed 2173 rows and 1093 columns
Presolve time: 0.01s
Presolved: 2280 rows, 1498 columns, 7929 nonzeros
Variable types: 1459 continuous, 39 integer (39 binary)
Found heuristic solution: objective 138.4243848
Root relaxation presolved: 2280 rows, 1498 columns, 7929 nonzeros

Root barrier log...

Ordering time: 0.03s

Barrier statistics:
 AA' NZ     : 4.339e+04
 Factor NZ  : 3.437e+05 (roughly 4 MB of memory)
 Factor Ops : 7.352e+07 (less than 1 second per iteration)
 Threads    : 36

                  Objective                Residual
Iter       Primal          Dual         Primal    Dual     Compl     Time
   0   6.02007886e+05 -2.96149406e+07  4.50e+00 6.81e+02  1.84e+04     0s
   1   5.86430619e+04 -8.03258297e+06  4.29e-01 5.15e-11  2.38e+03     0s
   2   7.41869167e+03 -7.55956763e+05  4.41e-03 6.91e-11  1.64e+02     0s
   3   3.98153721e+03 -5.01712106e+04  7.19e-13 5.46e-12  1.15e+01     0s
   4   5.99532037e+02 -4.42104896e+03  5.36e-13 1.82e-12  1.07e+00     0s
   5   3.40046173e+02 -1.62974860e+03  2.31e-13 3.64e-12  4.19e-01     0s
   6   1.96581096e+02 -4.21548476e+02  2.83e-13 3.64e-12  1.32e-01     0s
   7   1.37766663e+02 -1.19206919e+02  2.84e-13 3.64e-12  5.47e-02     0s
   8   9.45387846e+01  3.47896253e+01  2.60e-13 3.64e-12  1.27e-02     0s
   9   8.15571674e+01  6.04839717e+01  9.10e-13 3.64e-12  4.49e-03     0s
  10   7.77418012e+01  7.22617472e+01  5.06e-13 5.46e-12  1.17e-03     0s
  11   7.55096344e+01  7.39659687e+01  3.69e-13 1.82e-12  3.29e-04     0s
  12   7.50215550e+01  7.41348843e+01  5.22e-11 1.82e-12  1.89e-04     0s
  13   7.47335231e+01  7.42769283e+01  7.83e-11 3.64e-12  9.72e-05     0s
  14   7.43136466e+01  7.42993375e+01  6.38e-11 3.64e-12  3.05e-06     0s
  15   7.43040047e+01  7.43036696e+01  8.12e-10 2.73e-12  7.14e-08     0s
  16   7.43037144e+01  7.43037132e+01  4.78e-12 3.64e-12  2.61e-10     0s
  17   7.43037141e+01  7.43037141e+01  5.91e-10 3.64e-12  2.61e-13     0s

Barrier solved model in 17 iterations and 0.32 seconds (0.08 work units)
Optimal objective 7.43037141e+01


Root relaxation: objective 7.430371e+01, 172 iterations, 0.29 seconds (0.06 work units)

    Nodes    |    Current Node    |     Objective Bounds      |     Work
 Expl Unexpl |  Obj  Depth IntInf | Incumbent    BestBd   Gap | It/Node Time

     0     0   74.30371    0   11  138.42438   74.30371  46.3%     -    0s
H    0     0                      89.4607677   74.30371  16.9%     -    0s
     0     0   79.76026    0    9   89.46077   79.76026  10.8%     -    0s
H    0     0                      89.3069037   80.33452  10.0%     -    0s
     0     0   80.33452    0    8   89.30690   80.33452  10.0%     -    0s
     0     0   81.03386    0   10   89.30690   81.03386  9.26%     -    0s
     0     0   81.03386    0   11   89.30690   81.03386  9.26%     -    0s
     0     0   81.08241    0   12   89.30690   81.08241  9.21%     -    0s
     0     0   81.10333    0   12   89.30690   81.10333  9.19%     -    0s
     0     0   81.20088    0   12   89.30690   81.20088  9.08%     -    0s
     0     0   81.27562    0   11   89.30690   81.27562  8.99%     -    0s
     0     0   81.34437    0   10   89.30690   81.34437  8.92%     -    0s
     0     0   81.67606    0   10   89.30690   81.67606  8.54%     -    0s
H    0     0                      87.1714107   81.67606  6.30%     -    0s
     0     2   81.67606    0   10   87.17141   81.67606  6.30%     -    0s

Cutting planes:
  Gomory: 9
  MIR: 56

Explored 192 nodes (4161 simplex iterations) in 1.26 seconds (0.79 work units)
Thread count was 36 (of 36 available processors)

Solution count 4: 87.1714 89.3069 89.4608 138.424 

Optimal solution found (tolerance 1.00e-02)
Best objective 8.717141065537e+01, best bound 8.717141065537e+01, gap 0.0000%

Gurobi 9.5.0 (linux64) logging started Sat Nov  4 12:06:40 2023

Set parameter LogFile to value "/lustre1/scratch/348/vsc34888/JointResearch/05.Models/06.Benchmarking/E.Representative_days_based_on_Line_Benefits_OptModel/RTS24_ByStages_nc10/openStarNet_RTS24_ByStages_nc10.log"
Set parameter Method to value 2
Set parameter MIPFocus to value 1
Set parameter Presolve to value 2
Set parameter RINS to value 100
Set parameter MIPGap to value 0.01
Set parameter Threads to value 36
Set parameter TimeLimit to value 604800
Set parameter IterationLimit to value 760000000
No parameters matching 'relax_integrality' found
Gurobi Optimizer version 9.5.0 build v9.5.0rc5 (linux64)
Thread count: 36 physical cores, 36 logical processors, using up to 36 threads
Optimize a model with 4453 rows, 2552 columns and 10635 nonzeros
Model fingerprint: 0x8d401c97
Coefficient statistics:
  Matrix range     [3e-02, 3e+03]
  Objective range  [1e+00, 1e+00]
  Bounds range     [4e-04, 3e+00]
  RHS range        [4e-04, 3e+01]
Presolve removed 3513 rows and 1183 columns
Presolve time: 0.01s
Presolved: 940 rows, 1389 columns, 3469 nonzeros

Ordering time: 0.00s

Barrier statistics:
 AA' NZ     : 2.442e+03
 Factor NZ  : 1.028e+04 (roughly 1 MB of memory)
 Factor Ops : 1.561e+05 (less than 1 second per iteration)
 Threads    : 1

                  Objective                Residual
Iter       Primal          Dual         Primal    Dual     Compl     Time
   0   1.33569772e+06 -1.85890813e+08  4.99e+00 1.43e+03  1.65e+05     0s
   1   1.41098373e+05 -2.92644582e+07  5.02e-01 9.46e-11  1.75e+04     0s
   2   4.87211521e+04 -2.78560406e+06  1.24e-01 1.02e-10  1.55e+03     0s
   3   2.19695281e+04 -3.62011032e+05  3.44e-03 1.02e-10  1.64e+02     0s
   4   9.67953431e+03 -3.48355890e+04  1.27e-12 3.05e-11  1.87e+01     0s
   5   1.20593043e+03 -4.99607341e+03  3.95e-13 2.91e-11  2.61e+00     0s
   6   2.99749469e+02 -5.36394812e+02  2.89e-13 1.46e-11  3.52e-01     0s
   7   1.78823250e+02 -1.23025944e+02  2.78e-13 7.28e-12  1.27e-01     0s
   8   1.09167657e+02  1.91852868e+01  3.91e-13 1.46e-11  3.78e-02     0s
   9   9.21101668e+01  7.59135615e+01  3.72e-12 1.46e-11  6.81e-03     0s
  10   8.74424864e+01  8.46366681e+01  2.04e-12 1.46e-11  1.18e-03     0s
  11   8.72084717e+01  8.70750034e+01  1.59e-12 2.91e-11  5.61e-05     0s
  12   8.71714185e+01  8.71714073e+01  1.89e-12 2.91e-11  4.71e-09     0s
  13   8.71714107e+01  8.71714107e+01  6.47e-12 2.91e-11  4.71e-12     0s
  14   8.71714107e+01  8.71714107e+01  3.80e-12 1.46e-11  4.71e-15     0s

Barrier solved model in 14 iterations and 0.02 seconds (0.01 work units)
Optimal objective 8.71714107e+01

Crossover log...

     119 DPushes remaining with DInf 0.0000000e+00                 0s
       0 DPushes remaining with DInf 0.0000000e+00                 0s

      48 PPushes remaining with PInf 0.0000000e+00                 0s
       0 PPushes remaining with PInf 0.0000000e+00                 0s

  Push phase complete: Pinf 0.0000000e+00, Dinf 1.5251887e-12      0s

Iteration    Objective       Primal Inf.    Dual Inf.      Time
      53    8.7171411e+01   0.000000e+00   0.000000e+00      0s

Use crossover to convert LP symmetric solution to basic solution...
Crossover log...

       0 DPushes remaining with DInf 0.0000000e+00                 0s

      24 PPushes remaining with PInf 0.0000000e+00                 0s
       0 PPushes remaining with PInf 0.0000000e+00                 0s

  Push phase complete: Pinf 0.0000000e+00, Dinf 2.2650896e-12      0s

Iteration    Objective       Primal Inf.    Dual Inf.      Time
      81    8.7171411e+01   0.000000e+00   0.000000e+00      0s

Solved in 81 iterations and 0.03 seconds (0.02 work units)
Optimal objective  8.717141066e+01

Gurobi 11.0.0 (linux64) logging started Wed Apr 10 22:00:40 2024

Set parameter LogFile to value "/lustre1/scratch/348/vsc34888/JointResearch/05.Models/06.Benchmarking/E.Representative_days_based_on_Line_Benefits_OptModel/RTS24_ByStages_nc10/openStarNet_RTS24_ByStages_nc10.log"
Set parameter Method to value 2
Set parameter MIPFocus to value 1
Set parameter Presolve to value 2
Set parameter RINS to value 100
Set parameter MIPGap to value 0.01
Set parameter Threads to value 36
Set parameter TimeLimit to value 259200
Set parameter IterationLimit to value 760000000
Gurobi Optimizer version 11.0.0 build v11.0.0rc2 (linux64 - "Rocky Linux 8.8 (Green Obsidian)")

CPU model: Intel(R) Xeon(R) Gold 6240 CPU @ 2.60GHz, instruction set [SSE2|AVX|AVX2|AVX512]
Thread count: 36 physical cores, 36 logical processors, using up to 36 threads

Optimize a model with 3893 rows, 2377 columns and 10450 nonzeros
Model fingerprint: 0x58d07a48
Variable types: 2347 continuous, 30 integer (30 binary)
Coefficient statistics:
  Matrix range     [1e-03, 3e+03]
  Objective range  [1e+00, 1e+00]
  Bounds range     [4e-04, 2e+00]
  RHS range        [4e-04, 2e+00]
Presolve removed 2089 rows and 1106 columns
Presolve time: 0.02s
Presolved: 1804 rows, 1271 columns, 6365 nonzeros
Variable types: 1241 continuous, 30 integer (30 binary)
Found heuristic solution: objective 210.9665921
Root relaxation presolve removed 2 rows and 2 columns
Root relaxation presolved: 1802 rows, 1269 columns, 6361 nonzeros

Root barrier log...

Ordering time: 0.03s

Barrier statistics:
 AA' NZ     : 3.373e+04
 Factor NZ  : 1.898e+05 (roughly 3 MB of memory)
 Factor Ops : 2.975e+07 (less than 1 second per iteration)
 Threads    : 36

                  Objective                Residual
Iter       Primal          Dual         Primal    Dual     Compl     Time
   0   2.32743959e+06 -8.32859395e+07  2.07e+01 1.59e+03  1.45e+05     0s
   1   6.09690103e+05 -4.45999079e+07  5.35e+00 1.55e+01  3.57e+04     0s
   2   6.97224944e+04 -1.99509189e+07  6.23e-01 1.68e-10  7.05e+03     0s
   3   1.53207679e+04 -3.46944288e+06  7.94e-02 1.19e-10  9.87e+02     0s
   4   7.51810913e+03 -1.13137319e+05  8.53e-14 2.91e-11  3.12e+01     0s
   5   2.66138127e+03 -1.38965098e+04  2.58e-13 1.04e-11  4.28e+00     0s
   6   5.31939079e+02 -3.21539022e+03  1.06e-13 3.64e-12  9.69e-01     0s
   7   3.84877088e+02 -9.20365315e+02  1.01e-13 1.82e-12  3.37e-01     0s
   8   1.59681164e+02 -2.02380740e+02  2.59e-13 7.28e-12  9.36e-02     0s
   9   1.12815158e+02  7.85002229e+00  1.51e-13 1.82e-12  2.71e-02     0s
  10   9.65003510e+01  5.06448723e+01  1.25e-13 1.82e-12  1.19e-02     0s
  11   8.62259059e+01  7.68446203e+01  5.41e-13 7.28e-12  2.43e-03     0s
  12   8.44265081e+01  8.08757620e+01  1.45e-12 7.28e-12  9.18e-04     0s
  13   8.40391133e+01  8.19094036e+01  2.80e-12 7.28e-12  5.51e-04     0s
  14   8.37417043e+01  8.31539890e+01  5.58e-12 7.28e-12  1.52e-04     0s
  15   8.36724251e+01  8.34652088e+01  4.80e-12 3.64e-12  5.36e-05     0s
  16   8.36402539e+01  8.35972609e+01  6.08e-12 7.28e-12  1.11e-05     0s
  17   8.36249375e+01  8.36205233e+01  1.08e-11 2.18e-11  1.14e-06     0s
  18   8.36245424e+01  8.36242140e+01  8.47e-12 7.28e-12  8.49e-08     0s
  19   8.36245014e+01  8.36244935e+01  5.27e-11 7.28e-12  2.05e-09     0s
  20   8.36245000e+01  8.36244999e+01  4.54e-11 7.28e-12  2.97e-11     0s

Barrier solved model in 20 iterations and 0.31 seconds (0.07 work units)
Optimal objective 8.36245000e+01


Root relaxation: objective 8.362450e+01, 252 iterations, 0.27 seconds (0.05 work units)

    Nodes    |    Current Node    |     Objective Bounds      |     Work
 Expl Unexpl |  Obj  Depth IntInf | Incumbent    BestBd   Gap | It/Node Time

     0     0   83.62450    0   14  210.96659   83.62450  60.4%     -    0s
     0     0   83.78677    0   13  210.96659   83.78677  60.3%     -    0s
H    0     0                     184.0076404   83.80263  54.5%     -    0s
     0     0   83.80263    0   14  184.00764   83.80263  54.5%     -    0s
H    0     0                     165.2690402   83.80263  49.3%     -    0s
     0     0   84.11982    0   12  165.26904   84.11982  49.1%     -    0s
     0     0   84.17696    0   11  165.26904   84.17696  49.1%     -    0s
     0     0   84.78329    0   13  165.26904   84.78329  48.7%     -    0s
     0     0   84.92345    0   14  165.26904   84.92345  48.6%     -    0s
H    0     0                     143.6796230   85.11847  40.8%     -    0s
     0     0   85.11847    0   14  143.67962   85.11847  40.8%     -    0s
     0     0   85.84336    0   14  143.67962   85.84336  40.3%     -    0s
H    0     0                     132.0996631   85.99558  34.9%     -    0s
     0     0   85.99558    0   11  132.09966   85.99558  34.9%     -    0s
H    0     0                     115.3741822   85.99558  25.5%     -    1s
     0     2   85.99558    0   11  115.37418   85.99558  25.5%     -    1s
H   29    32                     114.5717976   87.08182  24.0%  63.8    1s
H   99   136                     112.6023601   89.37459  20.6%  69.6    2s
H  100   136                     110.9009754   89.37459  19.4%  69.0    2s
   597   364   99.23660   11    9  110.90098   90.39975  18.5%  43.2    5s
H 2225   519                     110.8508747   96.05190  13.4%  40.5    7s

Cutting planes:
  Gomory: 4
  Implied bound: 11
  MIR: 83
  Relax-and-lift: 10

Explored 11970 nodes (329791 simplex iterations) in 9.69 seconds (9.41 work units)
Thread count was 36 (of 36 available processors)

Solution count 10: 110.851 110.901 112.602 ... 210.967

Optimal solution found (tolerance 1.00e-02)
Best objective 1.108508746930e+02, best bound 1.108508746930e+02, gap 0.0000%

Gurobi 11.0.0 (linux64) logging started Wed Apr 10 22:00:50 2024

Set parameter LogFile to value "/lustre1/scratch/348/vsc34888/JointResearch/05.Models/06.Benchmarking/E.Representative_days_based_on_Line_Benefits_OptModel/RTS24_ByStages_nc10/openStarNet_RTS24_ByStages_nc10.log"
Set parameter Method to value 2
Set parameter MIPFocus to value 1
Set parameter Presolve to value 2
Set parameter RINS to value 100
Set parameter MIPGap to value 0.01
Set parameter Threads to value 36
Set parameter TimeLimit to value 259200
Set parameter IterationLimit to value 760000000
Gurobi Optimizer version 11.0.0 build v11.0.0rc2 (linux64 - "Rocky Linux 8.8 (Green Obsidian)")

CPU model: Intel(R) Xeon(R) Gold 6240 CPU @ 2.60GHz, instruction set [SSE2|AVX|AVX2|AVX512]
Thread count: 36 physical cores, 36 logical processors, using up to 36 threads

Optimize a model with 3893 rows, 2347 columns and 9220 nonzeros
Model fingerprint: 0x2000b168
Coefficient statistics:
  Matrix range     [1e-03, 3e+03]
  Objective range  [1e+00, 1e+00]
  Bounds range     [4e-04, 2e+00]
  RHS range        [4e-04, 4e+01]
Presolve removed 3335 rows and 1373 columns
Presolve time: 0.00s
Presolved: 558 rows, 985 columns, 2483 nonzeros

Ordering time: 0.00s

Barrier statistics:
 AA' NZ     : 1.421e+03
 Factor NZ  : 4.671e+03 (roughly 1 MB of memory)
 Factor Ops : 5.822e+04 (less than 1 second per iteration)
 Threads    : 1

                  Objective                Residual
Iter       Primal          Dual         Primal    Dual     Compl     Time
   0   1.46113690e+06 -1.98027336e+07  6.17e+00 6.37e+03  8.37e+04     0s
   1   1.04121937e+05 -1.20009655e+07  3.86e-01 8.50e-11  1.07e+04     0s
   2   3.72359105e+04 -3.52764966e+06  8.68e-02 9.23e-11  2.49e+03     0s
   3   1.86909630e+04 -2.66701612e+05  1.99e-03 3.64e-11  1.73e+02     0s
   4   3.42376715e+03 -2.31157631e+04  1.07e-11 3.31e-10  1.60e+01     0s
   5   8.22137927e+02 -3.01308310e+03  1.36e-12 2.21e-11  2.31e+00     0s
   6   3.85617849e+02 -1.30536783e+03  3.01e-13 1.46e-11  1.02e+00     0s
   7   2.90242968e+02 -1.80652131e+02  1.36e-13 2.91e-11  2.84e-01     0s
   8   1.60510329e+02  3.82914979e+01  6.84e-14 1.46e-11  7.36e-02     0s
   9   1.36075403e+02  8.28902825e+01  8.25e-14 1.46e-11  3.20e-02     0s
  10   1.18208224e+02  1.02879108e+02  1.27e-13 1.46e-11  9.23e-03     0s
  11   1.13058658e+02  1.08261354e+02  2.07e-13 1.46e-11  2.89e-03     0s
  12   1.11389544e+02  1.10114312e+02  2.99e-12 1.46e-11  7.68e-04     0s
  13   1.11057651e+02  1.10607569e+02  1.03e-11 1.46e-11  2.71e-04     0s
  14   1.10884012e+02  1.10811800e+02  7.50e-12 1.46e-11  4.35e-05     0s
  15   1.10853437e+02  1.10842167e+02  8.17e-12 1.46e-11  6.79e-06     0s
  16   1.10851259e+02  1.10849446e+02  1.07e-12 1.46e-11  1.09e-06     0s
  17   1.10850896e+02  1.10850818e+02  1.24e-11 1.46e-11  4.67e-08     0s
  18   1.10850875e+02  1.10850875e+02  6.66e-13 2.91e-11  4.59e-10     0s
  19   1.10850875e+02  1.10850875e+02  1.83e-11 3.64e-12  4.59e-13     0s

Barrier solved model in 19 iterations and 0.02 seconds (0.01 work units)
Optimal objective 1.10850875e+02

Crossover log...

     102 DPushes remaining with DInf 0.0000000e+00                 0s
       0 DPushes remaining with DInf 0.0000000e+00                 0s

      41 PPushes remaining with PInf 0.0000000e+00                 0s
       0 PPushes remaining with PInf 0.0000000e+00                 0s

  Push phase complete: Pinf 0.0000000e+00, Dinf 1.9571790e-12      0s

Iteration    Objective       Primal Inf.    Dual Inf.      Time
      46    1.1085087e+02   0.000000e+00   0.000000e+00      0s

Use crossover to convert LP symmetric solution to basic solution...
Crossover log...

       0 DPushes remaining with DInf 0.0000000e+00                 0s

      28 PPushes remaining with PInf 0.0000000e+00                 0s
       0 PPushes remaining with PInf 0.0000000e+00                 0s

  Push phase complete: Pinf 0.0000000e+00, Dinf 1.6535189e-12      0s

Iteration    Objective       Primal Inf.    Dual Inf.      Time
      81    1.1085087e+02   0.000000e+00   0.000000e+00      0s

Solved in 81 iterations and 0.03 seconds (0.01 work units)
Optimal objective  1.108508747e+02
